c A SAT instance generated from a 3-CNF formula that had 12 clauses and 6 variables
p cnf 6 12
5 3 -6 0
1 -2 5 0
-5 -2 -1 0
4 -5 6 0
5 2 3 0
5 -4 3 0
6 -3 5 0
1 -5 -3 0
-6 3 -1 0
-3 -5 2 0
4 -3 6 0
4 6 -2 0
